 vasp.6.0.8 29Jun18 (build Jun 13 2019 12:54:44) complex

 executed on      IFC18_CrayMPICH date 2021.11.11  21:51:18

 INCAR:
 POTCAR:    PAW_PBE Hf_pv 06Sep2000
 POTCAR:    PAW_PBE Pt 04Feb2005
 POTCAR:    PAW_PBE Sb 06Sep2000
 POTCAR:    PAW_PBE Hf_pv 06Sep2000
   VRHFIN =Hf: 5p6s5d

   TITEL  = PAW_PBE Hf_pv 06Sep2000
   POMASS =  178.490; ZVAL   =   10.000    mass and valenz
   ENMAX  =  220.334; ENMIN  =  165.250 eV

 POTCAR:    PAW_PBE Pt 04Feb2005
   VRHFIN =Pt: s1d9

   TITEL  = PAW_PBE Pt 04Feb2005
   POMASS =  195.080; ZVAL   =   10.000    mass and valenz
   ENMAX  =  230.283; ENMIN  =  172.712 eV

 POTCAR:    PAW_PBE Sb 06Sep2000
   VRHFIN =Sb: s2p3

   TITEL  = PAW_PBE Sb 06Sep2000
   POMASS =  121.750; ZVAL   =    5.000    mass and valenz
   ENMAX  =  172.069; ENMIN  =  129.052 eV

  PAW_PBE Hf_pv 06Sep2000               :
  PAW_PBE Pt 04Feb2005                  :
  PAW_PBE Sb 06Sep2000                  :

 POSCAR: Hf1 Sb1 Pt1
  positions in direct lattice
  velocities in cartesian coordinates
 exchange correlation table for  LEXCH =       14
   RHO(1)=    0.500       N(1)  =     2000
   RHO(2)=  100.500       N(2)  =     4000

 ion  position               nearest neighbor table
   1  0.250  0.250  0.250-   2 2.75   2 2.75   2 2.75   2 2.75   3 3.18   3 3.18   3 3.18   3 3.18
                             3 3.18   3 3.18
   2  0.000  0.000  0.000-   3 2.75   3 2.75   3 2.75   1 2.75   3 2.75   1 2.75   1 2.75   1 2.75

   3  0.750  0.750  0.750-   2 2.75   2 2.75   2 2.75   2 2.75   1 3.18   1 3.18   1 3.18   1 3.18
                             1 3.18   1 3.18

  LATTYP: Found a face centered cubic cell.
 ALAT       =     6.3565686509

  Lattice vectors:

 A1 = (   0.0000000000,   3.1782843254,   3.1782843254)
 A2 = (   3.1782843254,   0.0000000000,   3.1782843254)
 A3 = (   3.1782843254,   3.1782843254,   0.0000000000)

Analysis of symmetry for initial positions (statically):
 Subroutine PRICEL returns:
 Original cell was already a primitive cell.

 Routine SETGRP: Setting up the symmetry group for a
 face centered cubic supercell.

 Subroutine GETGRP returns: Found 24 space group operations
 (whereof 24 operations were pure point group operations)
 out of a pool of 48 trial point group operations.

The static configuration has the point symmetry T_d .

Analysis of symmetry for dynamics (positions and initial velocities):
 Subroutine PRICEL returns:
 Original cell was already a primitive cell.

 Routine SETGRP: Setting up the symmetry group for a
 face centered cubic supercell.

 Subroutine GETGRP returns: Found 24 space group operations
 (whereof 24 operations were pure point group operations)
 out of a pool of 48 trial point group operations.

The dynamic configuration has the point symmetry T_d .

 Subroutine INISYM returns: Found 24 space group operations
 (whereof 24 operations are pure point group operations),
 and found     1 'primitive' translations

                                     Primitive cell

  volume of cell :      64.2108

  direct lattice vectors                    reciprocal lattice vectors
     0.000000000  3.178284325  3.178284325    -0.157317580  0.157317580  0.157317580
     3.178284325  0.000000000  3.178284325     0.157317580 -0.157317580  0.157317580
     3.178284325  3.178284325  0.000000000     0.157317580  0.157317580 -0.157317580

  length of vectors
     4.494772798  4.494772798  4.494772798     0.272482042  0.272482042  0.272482042

  position of ions in fractional coordinates (direct lattice)
     0.250000000  0.250000000  0.250000000
     0.000000000  0.000000000  0.000000000
     0.750000000  0.750000000  0.750000000

  ion indices of the primitive-cell ions
   primitive index   ion index
                 1           1
                 2           2
                 3           3

 KPOINTS: KPOINTS

Automatic generation of k-mesh.
Space group operators:
 irot       det(A)        alpha          n_x          n_y          n_z        tau_x        tau_y        tau_z
    1     1.000000     0.000000     1.000000     0.000000     0.000000     0.000000     0.000000     0.000000
    2     1.000000   120.000000    -0.577350    -0.577350    -0.577350     0.000000     0.000000     0.000000
    3     1.000000   120.000000     0.577350     0.577350     0.577350     0.000000     0.000000     0.000000
    4    -1.000000    90.000000     0.000000     0.000000    -1.000000     0.000000     0.000000     0.000000
    5    -1.000000   180.000000    -0.000000     0.707107     0.707107     0.000000     0.000000     0.000000
    6    -1.000000    90.000000     0.000000     1.000000     0.000000     0.000000     0.000000     0.000000
    7     1.000000   180.000000     0.000000    -0.000000    -1.000000     0.000000     0.000000     0.000000
    8     1.000000   120.000000    -0.577350     0.577350     0.577350     0.000000     0.000000     0.000000
    9     1.000000   120.000000    -0.577350     0.577350    -0.577350     0.000000     0.000000     0.000000
   10    -1.000000    90.000000     0.000000     0.000000     1.000000     0.000000     0.000000     0.000000
   11    -1.000000    90.000000    -1.000000    -0.000000    -0.000000     0.000000     0.000000     0.000000
   12    -1.000000   180.000000     0.707107     0.000000     0.707107     0.000000     0.000000     0.000000
   13     1.000000   120.000000     0.577350    -0.577350     0.577350     0.000000     0.000000     0.000000
   14     1.000000   120.000000    -0.577350    -0.577350     0.577350     0.000000     0.000000     0.000000
   15     1.000000   180.000000     1.000000     0.000000     0.000000     0.000000     0.000000     0.000000
   16    -1.000000    90.000000     0.000000    -1.000000     0.000000     0.000000     0.000000     0.000000
   17    -1.000000   180.000000     0.707107     0.707107     0.000000     0.000000     0.000000     0.000000
   18    -1.000000    90.000000     1.000000     0.000000    -0.000000     0.000000     0.000000     0.000000
   19     1.000000   120.000000     0.577350    -0.577350    -0.577350     0.000000     0.000000     0.000000
   20     1.000000   180.000000     0.000000    -1.000000    -0.000000     0.000000     0.000000     0.000000
   21     1.000000   120.000000     0.577350     0.577350    -0.577350     0.000000     0.000000     0.000000
   22    -1.000000   180.000000     0.000000    -0.707107     0.707107     0.000000     0.000000     0.000000
   23    -1.000000   180.000000     0.707107    -0.707107    -0.000000     0.000000     0.000000     0.000000
   24    -1.000000   180.000000    -0.707107     0.000000     0.707107     0.000000     0.000000     0.000000

 Subroutine IBZKPT returns following result:

 Found     84 irreducible k-points:

 Following reciprocal coordinates:
            Coordinates               Weight
  0.000000  0.000000  0.000000      1.000000
  0.076923  0.000000 -0.000000      8.000000
  0.153846  0.000000  0.000000      8.000000
  0.230769  0.000000  0.000000      8.000000
  0.307692  0.000000  0.000000      8.000000
  0.384615 -0.000000  0.000000      8.000000
  0.461538  0.000000  0.000000      8.000000
  0.076923  0.076923  0.000000      6.000000
  0.153846  0.076923  0.000000     24.000000
  0.230769  0.076923 -0.000000     24.000000
  0.307692  0.076923  0.000000     24.000000
  0.384615  0.076923  0.000000     24.000000
  0.461538  0.076923 -0.000000     24.000000
 -0.461538  0.076923  0.000000     24.000000
 -0.384615  0.076923  0.000000     24.000000
 -0.307692  0.076923 -0.000000     24.000000
 -0.230769  0.076923 -0.000000     24.000000
 -0.153846  0.076923  0.000000     24.000000
 -0.076923  0.076923  0.000000     12.000000
  0.153846  0.153846  0.000000      6.000000
  0.230769  0.153846  0.000000     24.000000
  0.307692  0.153846  0.000000     24.000000
  0.384615  0.153846  0.000000     24.000000
  0.461538  0.153846  0.000000     24.000000
 -0.461538  0.153846  0.000000     24.000000
 -0.384615  0.153846  0.000000     24.000000
 -0.307692  0.153846  0.000000     24.000000
 -0.230769  0.153846 -0.000000     24.000000
 -0.153846  0.153846  0.000000     12.000000
  0.230769  0.230769  0.000000      6.000000
  0.307692  0.230769  0.000000     24.000000
  0.384615  0.230769  0.000000     24.000000
  0.461538  0.230769  0.000000     24.000000
 -0.461538  0.230769  0.000000     24.000000
 -0.384615  0.230769 -0.000000     24.000000
 -0.307692  0.230769  0.000000     24.000000
 -0.230769  0.230769  0.000000     12.000000
  0.307692  0.307692  0.000000      6.000000
  0.384615  0.307692  0.000000     24.000000
  0.461538  0.307692  0.000000     24.000000
 -0.461538  0.307692 -0.000000     24.000000
 -0.384615  0.307692 -0.000000     24.000000
 -0.307692  0.307692  0.000000     12.000000
  0.384615  0.384615  0.000000      6.000000
  0.461538  0.384615  0.000000     24.000000
 -0.461538  0.384615  0.000000     24.000000
 -0.384615  0.384615 -0.000000     12.000000
  0.461538  0.461538  0.000000      6.000000
 -0.461538  0.461538  0.000000     12.000000
  0.230769  0.153846  0.076923     24.000000
  0.307692  0.153846  0.076923     48.000000
  0.384615  0.153846  0.076923     48.000000
  0.461538  0.153846  0.076923     48.000000
 -0.461538  0.153846  0.076923     48.000000
  0.307692  0.230769  0.076923     24.000000
  0.384615  0.230769  0.076923     48.000000
  0.461538  0.230769  0.076923     48.000000
 -0.461538  0.230769  0.076923     48.000000
 -0.384615  0.230769  0.076923     48.000000
 -0.307692  0.230769  0.076923     48.000000
[...]
 -0.461538  0.384615  0.076923     48.000000
 -0.384615  0.384615  0.076923     48.000000
 -0.307692  0.384615  0.076923     24.000000
 -0.461538  0.461538  0.076923     24.000000
 -0.384615  0.461538  0.076923     24.000000
  0.461538  0.307692  0.153846     24.000000
 -0.461538  0.307692  0.153846     48.000000
 -0.384615  0.307692  0.153846     48.000000
 -0.461538  0.384615  0.153846     24.000000
 -0.384615  0.384615  0.153846     48.000000
 -0.307692  0.384615  0.153846     48.000000
 -0.230769  0.384615  0.153846     24.000000
 -0.384615  0.461538  0.153846     24.000000
 -0.307692  0.461538  0.153846     24.000000
 -0.307692  0.461538  0.230769     24.000000

 Following cartesian coordinates:
            Coordinates               Weight
  0.000000  0.000000  0.000000      1.000000
 -0.012101  0.012101  0.012101      8.000000
 -0.024203  0.024203  0.024203      8.000000
 -0.036304  0.036304  0.036304      8.000000
 -0.048405  0.048405  0.048405      8.000000
 -0.060507  0.060507  0.060507      8.000000
 -0.072608  0.072608  0.072608      8.000000
 -0.000000  0.000000  0.024203      6.000000
 -0.012101  0.012101  0.036304     24.000000
 -0.024203  0.024203  0.048405     24.000000
 -0.036304  0.036304  0.060507     24.000000
 -0.048405  0.048405  0.072608     24.000000
 -0.060507  0.060507  0.084709     24.000000
  0.084709 -0.084709 -0.060507     24.000000
  0.072608 -0.072608 -0.048405     24.000000
  0.060507 -0.060507 -0.036304     24.000000
  0.048405 -0.048405 -0.024203     24.000000
  0.036304 -0.036304 -0.012101     24.000000
  0.024203 -0.024203  0.000000     12.000000
 -0.000000  0.000000  0.048405      6.000000
 -0.012101  0.012101  0.060507     24.000000
[...]
  242          M_sumb_d                              0.000400                          1   4
  243        strelo                                0.002176                            1   3
  244          M_sumb_d                              0.000348                          2   4
  245        strenl                                0.464012                            1   3
  246          spher                                 0.358928                         19   4
  247          phase                                 0.007663                        189   4
  248          proj1                                 0.086489                        756   4
  249            crexp_mul_wave                        0.014514                     2268   5
  250            M_sumb_d                              0.020410                      756   5
  251          M_sumb_d                              0.000537                          1   4
  252        M_sumb_d                              0.000206                            6   3
  253        fft3d_mpi                             0.014632                           11   3
  254          fftbas_plan_mpi                       0.013483                         11   4
  255            dfftw_execute                         0.004480                       33   5
  256            map_forward                           0.003165                       10   5
  257              map_gather                            0.000595                      5   6
  258              m_alltoallv_z                         0.001381                      5   6
  259              map_scatter                           0.000950                      5   6
  260            map_backward                          0.003374                       12   5
  261              map_gather                            0.000651                      6   6
  262              m_alltoallv_z                         0.001538                      6   6
  263              map_scatter                           0.000898                      6   6
  264        ggaall_grid                           0.001223                            1   3
  265        forhar                                0.005083                            2   3
  266          M_sumb_d                              0.000169                          2   4
  267        strehar                               0.002129                            1   3
  268          M_sumb_d                              0.000087                          1   4
  269        chggra                                0.005011                            1   3
  270          fft3d_mpi                             0.003606                          3   4
  271            fftbas_plan_mpi                       0.003384                        3   5
  272              dfftw_execute                         0.001326                      9   6
  273              map_backward                          0.000500                      2   6
  274                map_gather                            0.000083                    1   7
  275                m_alltoallv_z                         0.000215                    1   7
  276                map_scatter                           0.000156                    1   7
  277              map_forward                           0.000891                      4   6
  278                map_gather                            0.000201                    2   7
  279                m_alltoallv_z                         0.000398                    2   7
  280                map_scatter                           0.000203                    2   7
  281          M_sumb_d                              0.000131                          3   4
  282        brmix                                 0.026130                            1   3
  283          M_sumb_d                              0.000246                          6   4
  284          brpre                                 0.000043                          1   4
  285          setg0                                 0.000945                          1   4
  286          broyd                                 0.001380                          1   4
  287            M_sumb_d                              0.000397                       14   5
  288            brget                                 0.000196                       44   5
  289            brsav                                 0.000050                       12   5
  290          M_bcast_z                             0.022731                          1   4
  291          M_bcast_d                             0.000026                          1   4
  292        M_bcast_d                             0.000035                            2   3
  293      potlok                                0.024014                              1   2
  294        fft3d_mpi                             0.014860                           13   3
  295          fftbas_plan_mpi                       0.013828                         13   4
  296            dfftw_execute                         0.004806                       39   5
  297            map_forward                           0.003423                       14   5
  298              map_gather                            0.000593                      8   6
  299              m_alltoallv_z                         0.001505                      8   6
  300              map_scatter                           0.000992                      8   6
  301            map_backward                          0.003011                       12   5
  302              map_gather                            0.000548                      6   6
  303              m_alltoallv_z                         0.001364                      6   6
  304              map_scatter                           0.000835                      6   6
  305        ggaall_grid                           0.001297                            1   3
  306        M_sumb_d                              0.000483                            6   3
  307        M_bcast_d                             0.000085                            1   3
  308      potlok_metagga                        0.000004                              1   2
  309      set_dd_magatom                        0.000004                              1   2
  310      set_dd_paw                            0.000378                              1   2
  311        set_rsgf_all                          0.000003                            1   3
  312        M_sumb_d                              0.000211                            8   3
  313      densta                                0.001956                              1   2
  314        M_sumb_d                              0.000814                           40   3
  315      lprj_proall                           0.000008                              1   2

 Flat profile

 total_time                              8.907363           1
 eddav                                   2.379149          12
 dfftw_execute                           1.909043       23877
 setdij_                                 1.698136          36
 fftbas_plan_mpi                         1.511217        7961
 M_sumb_d                                1.118826       22979
 elmin                                   0.732320           1
 m_alltoallv_z                           0.596011        7976
 set_charge                              0.547933           8
 pdssyex_zheevx                          0.510801         252
 M_alltoall_d                            0.488631       26376
 spher                                   0.408617          20
 orth1                                   0.339968        5367
 M_bcast_z                               0.287360        3485
 proj1                                   0.274695        3396
 vhamil                                  0.262292        3564
 map_gather                              0.257343        7976
 map_forward                             0.236535        8564
 fftwav_mpi                              0.231256        4175
 vnlac0                                  0.227121        3564
 crpa_reader                             0.221730           1
 gemm                                    0.219568       10692
 map_scatter                             0.218328        7976
 redis_pw                                0.195818       10230
 redis_proj                              0.188251       12807
 hamiltmu                                0.182569        1782
 fft3d_mpi                               0.153150        7959
 map_backward                            0.124516        7354
 w1_copy                                 0.121107       10692
 fftext_mpi                              0.099589        3564
 work_mul_crexp                          0.095952       10692
 crexp_mul_wave                          0.071442       10188
 eccp                                    0.068176        1008
 overl                                   0.066456        6141
 kinhamil                                0.064481        3564
 M_bcast_d                               0.058070        1805
 potlok                                  0.048202           9
 force_and_stress                        0.047548           1
 overl1                                  0.046019        3564
 lincom                                  0.035695         273
 apply_precond                           0.030828        2556
 setup_precond                           0.030199        1008
 w1_projall                              0.025921        1278
 pw_charge                               0.025277         611
 phase                                   0.020372         484
 truncate_high_frequency_w1              0.015244        4572
 densta                                  0.015098          13
 soft_charge                             0.014781           8
 fornl                                   0.014235           1
 ggaall_grid                             0.012581          10
 strenl                                  0.010394           1
 setg0                                   0.007839           9
 brmix                                   0.007040           8
 forhar                                  0.004914           2
 broyd                                   0.004368           8
 set_dd_paw                              0.002803          10
 forloc                                  0.002594           1
 strehar                                 0.002042           1
 orthch                                  0.001924           1
 strelo                                  0.001828           1
 depsum                                  0.001790           8
 chggra                                  0.001274           1
 brgrid                                  0.001219           1
 proj                                    0.000889          21
 brget                                   0.000875         206
 choleski                                0.000714          21
 brpre                                   0.000593           8
 brsav                                   0.000365          69
 strkin                                  0.000282           1
 fordep                                  0.000120           1
 vectorpot                               0.000078           9
 set_rsgf_all                            0.000049          10
 set_dd_magatom                          0.000040          10
 potlok_metagga                          0.000039           9
 set_kineden                             0.000026           7
 rotate_active_occupied_orbital          0.000015           1
 lprj_proall                             0.000008           1
 redis_pw_over_bands                     0.000003           1
  summed up times    25.5099449157715

 Accumulative profile

 total_time                             25.509945           1
 elmin                                  13.653812           1
 eddav                                  11.252078          12
 fft3d_mpi                               4.954913        7959
 fftbas_plan_mpi                         4.852994        7961
 hamiltmu                                3.387168        1782
 fftwav_mpi                              2.559374        4175
 force_and_stress                        2.188424           1
 kinhamil                                2.147073        3564
 setdij_                                 2.111886          36
 fftext_mpi                              2.082592        3564
 dfftw_execute                           1.909043       23877
 M_sumb_d                                1.118826       22979
 set_charge                              1.035145           8
 map_forward                             0.825960        8564
 vnlac0                                  0.749215        3564
 map_backward                            0.606774        7354
 m_alltoallv_z                           0.596011        7976
 pdssyex_zheevx                          0.510801         252
 M_alltoall_d                            0.488631       26376
 proj1                                   0.469425        3396
 strenl                                  0.464012           1
 redis_pw                                0.457717       10230
 redis_proj                              0.414984       12807
 spher                                   0.408617          20
 soft_charge                             0.398757           8
 w1_projall                              0.398644        1278
 fordep                                  0.344787           1
 orth1                                   0.339968        5367
 M_bcast_z                               0.287360        3485
 vhamil                                  0.262292        3564
 map_gather                              0.257343        7976
 crpa_reader                             0.221730           1
 gemm                                    0.219568       10692
 map_scatter                             0.218328        7976
 potlok                                  0.200196           9
 eccp                                    0.121420        1008
 w1_copy                                 0.121107       10692
 work_mul_crexp                          0.095952       10692
 crexp_mul_wave                          0.071442       10188
 overl                                   0.066456        6141
 brmix                                   0.060943           8
 M_bcast_d                               0.058070        1805
 setup_precond                           0.053625        1008
 overl1                                  0.046019        3564
 set_dd_paw                              0.039059          10
 lincom                                  0.035695         273
 apply_precond                           0.030828        2556
 pw_charge                               0.025277         611
 densta                                  0.024762          13
 fornl                                   0.021187           1
 orthch                                  0.021063           1
 phase                                   0.020372         484
 truncate_high_frequency_w1              0.015244        4572
 ggaall_grid                             0.012581          10
 proj                                    0.011101          21
 broyd                                   0.008046           8
 setg0                                   0.007839           9
 depsum                                  0.005524           8
 forhar                                  0.005083           2
 chggra                                  0.005011           1
 forloc                                  0.002656           1
 strelo                                  0.002176           1
 strehar                                 0.002129           1
 brgrid                                  0.001219           1
 brget                                   0.000875         206
 choleski                                0.000714          21
 strkin                                  0.000682           1
 brpre                                   0.000593           8
 brsav                                   0.000365          69
 vectorpot                               0.000078           9
 set_rsgf_all                            0.000049          10
 set_dd_magatom                          0.000040          10
 potlok_metagga                          0.000039           9
 set_kineden                             0.000026           7
 rotate_active_occupied_orbital          0.000015           1
 lprj_proall                             0.000008           1
 redis_pw_over_bands                     0.000003           1

Profiling took   0.604018  0.756176  0.005775  0.004425 seconds
Profiling took   0.574378 seconds