 vasp.6.0.8 29Jun18 (build Jun 13 2019 12:54:44) complex

 executed on      IFC18_CrayMPICH date 2021.12.05  14:21:53

 INCAR:
 POTCAR:    PAW_PBE Hf_pv 06Sep2000
 POTCAR:    PAW_PBE Sb 06Sep2000
 POTCAR:    PAW_PBE Pt 04Feb2005
 POTCAR:    PAW_PBE Hf_pv 06Sep2000
   VRHFIN =Hf: 5p6s5d

   TITEL  = PAW_PBE Hf_pv 06Sep2000
   POMASS =  178.490; ZVAL   =   10.000    mass and valenz
   ENMAX  =  220.334; ENMIN  =  165.250 eV

 POTCAR:    PAW_PBE Sb 06Sep2000
   VRHFIN =Sb: s2p3

   TITEL  = PAW_PBE Sb 06Sep2000
   POMASS =  121.750; ZVAL   =    5.000    mass and valenz
   ENMAX  =  172.069; ENMIN  =  129.052 eV

 POTCAR:    PAW_PBE Pt 04Feb2005
   VRHFIN =Pt: s1d9

   TITEL  = PAW_PBE Pt 04Feb2005
   POMASS =  195.080; ZVAL   =   10.000    mass and valenz
   ENMAX  =  230.283; ENMIN  =  172.712 eV

  PAW_PBE Hf_pv 06Sep2000               :
  PAW_PBE Sb 06Sep2000                  :
  PAW_PBE Pt 04Feb2005                  :

 POSCAR: Hf1 Sb1 Pt1
  positions in direct lattice
 exchange correlation table for  LEXCH =       14
   RHO(1)=    0.500       N(1)  =     2000
   RHO(2)=  100.500       N(2)  =     4000

 ion  position               nearest neighbor table
   1  0.750  0.750  0.750-   3 2.88   3 2.88   3 2.88   3 2.88   2 3.32   2 3.32   2 3.32   2 3.32
                             2 3.32   2 3.32
   2  0.250  0.250  0.250-   3 2.88   3 2.88   3 2.88   3 2.88   1 3.32   1 3.32   1 3.32   1 3.32
                             1 3.32   1 3.32
   3  0.000  0.000  0.000-   1 2.88   2 2.88   1 2.88   1 2.88   2 2.88   2 2.88   1 2.88   2 2.88

  LATTYP: Found a face centered cubic cell.
 ALAT       =     6.6403501566

  Lattice vectors:

 A1 = (   0.0000000000,   3.3201750783,   3.3201750783)
 A2 = (   3.3201750783,   0.0000000000,   3.3201750783)
 A3 = (   3.3201750783,   3.3201750783,   0.0000000000)

Analysis of symmetry for initial positions (statically):
 Subroutine PRICEL returns:
 Original cell was already a primitive cell.

 Routine SETGRP: Setting up the symmetry group for a
 face centered cubic supercell.

 Subroutine GETGRP returns: Found 24 space group operations
 (whereof 24 operations were pure point group operations)
 out of a pool of 48 trial point group operations.

The static configuration has the point symmetry T_d .

Analysis of symmetry for dynamics (positions and initial velocities):
 Subroutine PRICEL returns:
 Original cell was already a primitive cell.

 Routine SETGRP: Setting up the symmetry group for a
 face centered cubic supercell.

 Subroutine GETGRP returns: Found 24 space group operations
 (whereof 24 operations were pure point group operations)
 out of a pool of 48 trial point group operations.

The dynamic configuration has the point symmetry T_d .

 Subroutine INISYM returns: Found 24 space group operations
 (whereof 24 operations are pure point group operations),
 and found     1 'primitive' translations

                                     Primitive cell

  volume of cell :      73.2003

  direct lattice vectors                    reciprocal lattice vectors
     0.000000000  3.320175078  3.320175078    -0.150594468  0.150594468  0.150594468
     3.320175078  0.000000000  3.320175078     0.150594468 -0.150594468  0.150594468
     3.320175078  3.320175078  0.000000000     0.150594468  0.150594468 -0.150594468

  length of vectors
     4.695436625  4.695436625  4.695436625     0.260837270  0.260837270  0.260837270

  position of ions in fractional coordinates (direct lattice)
     0.750000000  0.750000000  0.750000000
     0.250000000  0.250000000  0.250000000
     0.000000000  0.000000000  0.000000000

  ion indices of the primitive-cell ions
   primitive index   ion index
                 1           1
                 2           2
                 3           3

 KPOINTS: KPOINTS

Automatic generation of k-mesh.
Space group operators:
 irot       det(A)        alpha          n_x          n_y          n_z        tau_x        tau_y        tau_z
    1     1.000000     0.000000     1.000000     0.000000     0.000000     0.000000     0.000000     0.000000
    2     1.000000   120.000000    -0.577350    -0.577350    -0.577350     0.000000     0.000000     0.000000
    3     1.000000   120.000000     0.577350     0.577350     0.577350     0.000000     0.000000     0.000000
    4    -1.000000    90.000000     0.000000     0.000000    -1.000000     0.000000     0.000000     0.000000
    5    -1.000000   180.000000    -0.000000     0.707107     0.707107     0.000000     0.000000     0.000000
    6    -1.000000    90.000000     0.000000     1.000000     0.000000     0.000000     0.000000     0.000000
    7     1.000000   180.000000    -0.000000     0.000000    -1.000000     0.000000     0.000000     0.000000
    8     1.000000   120.000000    -0.577350     0.577350     0.577350     0.000000     0.000000     0.000000
    9     1.000000   120.000000    -0.577350     0.577350    -0.577350     0.000000     0.000000     0.000000
   10    -1.000000    90.000000     0.000000     0.000000     1.000000     0.000000     0.000000     0.000000
   11    -1.000000    90.000000    -1.000000    -0.000000     0.000000     0.000000     0.000000     0.000000
   12    -1.000000   180.000000     0.707107     0.000000     0.707107     0.000000     0.000000     0.000000
   13     1.000000   120.000000     0.577350    -0.577350     0.577350     0.000000     0.000000     0.000000
   14     1.000000   120.000000    -0.577350    -0.577350     0.577350     0.000000     0.000000     0.000000
   15     1.000000   180.000000     1.000000     0.000000     0.000000     0.000000     0.000000     0.000000
   16    -1.000000    90.000000     0.000000    -1.000000     0.000000     0.000000     0.000000     0.000000
   17    -1.000000   180.000000     0.707107     0.707107     0.000000     0.000000     0.000000     0.000000
   18    -1.000000    90.000000     1.000000    -0.000000    -0.000000     0.000000     0.000000     0.000000
   19     1.000000   120.000000     0.577350    -0.577350    -0.577350     0.000000     0.000000     0.000000
   20     1.000000   180.000000    -0.000000    -1.000000    -0.000000     0.000000     0.000000     0.000000
   21     1.000000   120.000000     0.577350     0.577350    -0.577350     0.000000     0.000000     0.000000
   22    -1.000000   180.000000     0.000000    -0.707107     0.707107     0.000000     0.000000     0.000000
   23    -1.000000   180.000000     0.707107    -0.707107     0.000000     0.000000     0.000000     0.000000
   24    -1.000000   180.000000     0.707107     0.000000    -0.707107     0.000000     0.000000     0.000000

 Subroutine IBZKPT returns following result:

 Found     84 irreducible k-points:

 Following reciprocal coordinates:
            Coordinates               Weight
  0.000000  0.000000  0.000000      1.000000
  0.076923 -0.000000 -0.000000      8.000000
  0.153846  0.000000 -0.000000      8.000000
  0.230769  0.000000 -0.000000      8.000000
  0.307692  0.000000 -0.000000      8.000000
  0.384615  0.000000 -0.000000      8.000000
  0.461538  0.000000 -0.000000      8.000000
  0.076923  0.076923 -0.000000      6.000000
  0.153846  0.076923 -0.000000     24.000000
  0.230769  0.076923  0.000000     24.000000
  0.307692  0.076923 -0.000000     24.000000
  0.384615  0.076923 -0.000000     24.000000
  0.461538  0.076923 -0.000000     24.000000
 -0.461538  0.076923 -0.000000     24.000000
 -0.384615  0.076923  0.000000     24.000000
 -0.307692  0.076923  0.000000     24.000000
 -0.230769  0.076923  0.000000     24.000000
 -0.153846  0.076923  0.000000     24.000000
 -0.076923  0.076923 -0.000000     12.000000
  0.153846  0.153846 -0.000000      6.000000
  0.230769  0.153846  0.000000     24.000000
  0.307692  0.153846 -0.000000     24.000000
  0.384615  0.153846 -0.000000     24.000000
  0.461538  0.153846  0.000000     24.000000
 -0.461538  0.153846 -0.000000     24.000000
 -0.384615  0.153846 -0.000000     24.000000
 -0.307692  0.153846  0.000000     24.000000
 -0.230769  0.153846  0.000000     24.000000
 -0.153846  0.153846  0.000000     12.000000
  0.230769  0.230769 -0.000000      6.000000
  0.307692  0.230769  0.000000     24.000000
  0.384615  0.230769 -0.000000     24.000000
  0.461538  0.230769 -0.000000     24.000000
 -0.461538  0.230769  0.000000     24.000000
 -0.384615  0.230769  0.000000     24.000000
 -0.307692  0.230769  0.000000     24.000000
 -0.230769  0.230769  0.000000     12.000000
  0.307692  0.307692 -0.000000      6.000000
  0.384615  0.307692  0.000000     24.000000
  0.461538  0.307692 -0.000000     24.000000
 -0.461538  0.307692  0.000000     24.000000
 -0.384615  0.307692  0.000000     24.000000
 -0.307692  0.307692  0.000000     12.000000
  0.384615  0.384615 -0.000000      6.000000
  0.461538  0.384615  0.000000     24.000000
 -0.461538  0.384615  0.000000     24.000000
 -0.384615  0.384615  0.000000     12.000000
  0.461538  0.461538 -0.000000      6.000000
 -0.461538  0.461538  0.000000     12.000000
  0.230769  0.153846  0.076923     24.000000
  0.307692  0.153846  0.076923     48.000000
  0.384615  0.153846  0.076923     48.000000
  0.461538  0.153846  0.076923     48.000000
 -0.461538  0.153846  0.076923     48.000000
  0.307692  0.230769  0.076923     24.000000
  0.384615  0.230769  0.076923     48.000000
  0.461538  0.230769  0.076923     48.000000
 -0.461538  0.230769  0.076923     48.000000
 -0.384615  0.230769  0.076923     48.000000
 -0.307692  0.230769  0.076923     48.000000
[...]
 -0.461538  0.384615  0.076923     48.000000
 -0.384615  0.384615  0.076923     48.000000
 -0.307692  0.384615  0.076923     24.000000
 -0.461538  0.461538  0.076923     24.000000
 -0.384615  0.461538  0.076923     24.000000
  0.461538  0.307692  0.153846     24.000000
 -0.461538  0.307692  0.153846     48.000000
 -0.384615  0.307692  0.153846     48.000000
 -0.461538  0.384615  0.153846     24.000000
 -0.384615  0.384615  0.153846     48.000000
 -0.307692  0.384615  0.153846     48.000000
 -0.230769  0.384615  0.153846     24.000000
 -0.384615  0.461538  0.153846     24.000000
 -0.307692  0.461538  0.153846     24.000000
 -0.307692  0.461538  0.230769     24.000000

 Following cartesian coordinates:
            Coordinates               Weight
  0.000000  0.000000  0.000000      1.000000
 -0.012101  0.012101  0.012101      8.000000
 -0.024203  0.024203  0.024203      8.000000
 -0.036304  0.036304  0.036304      8.000000
 -0.048405  0.048405  0.048405      8.000000
 -0.060507  0.060507  0.060507      8.000000
 -0.072608  0.072608  0.072608      8.000000
  0.000000 -0.000000  0.024203      6.000000
 -0.012101  0.012101  0.036304     24.000000
 -0.024203  0.024203  0.048405     24.000000
 -0.036304  0.036304  0.060507     24.000000
 -0.048405  0.048405  0.072608     24.000000
 -0.060507  0.060507  0.084709     24.000000
  0.084709 -0.084709 -0.060507     24.000000
  0.072608 -0.072608 -0.048405     24.000000
  0.060507 -0.060507 -0.036304     24.000000
  0.048405 -0.048405 -0.024203     24.000000
  0.036304 -0.036304 -0.012101     24.000000
  0.024203 -0.024203  0.000000     12.000000
 -0.000000  0.000000  0.048405      6.000000
 -0.012101  0.012101  0.060507     24.000000
[...]
  242          M_sumb_d                              0.000357                          1   4
  243        strelo                                0.003068                            1   3
  244          M_sumb_d                              0.000120                          2   4
  245        strenl                                0.781637                            1   3
  246          spher                                 0.627491                         19   4
  247          phase                                 0.012813                        189   4
  248          proj1                                 0.124163                        756   4
  249            crexp_mul_wave                        0.019572                     2268   5
  250            M_sumb_d                              0.033294                      756   5
  251          M_sumb_d                              0.003841                          1   4
  252        M_sumb_d                              0.000204                            6   3
  253        fft3d_mpi                             0.017720                           11   3
  254          fftbas_plan_mpi                       0.016294                         11   4
  255            dfftw_execute                         0.006375                       33   5
  256            map_forward                           0.003191                       10   5
  257              map_gather                            0.000640                      5   6
  258              m_alltoallv_z                         0.001257                      5   6
  259              map_scatter                           0.001054                      5   6
  260            map_backward                          0.004409                       12   5
  261              map_gather                            0.001307                      6   6
  262              m_alltoallv_z                         0.001726                      6   6
  263              map_scatter                           0.001087                      6   6
  264        ggaall_grid                           0.002063                            1   3
  265        forhar                                0.007288                            2   3
  266          M_sumb_d                              0.000149                          2   4
  267        strehar                               0.003213                            1   3
  268          M_sumb_d                              0.000131                          1   4
  269        chggra                                0.007262                            1   3
  270          fft3d_mpi                             0.004748                          3   4
  271            fftbas_plan_mpi                       0.004391                        3   5
  272              dfftw_execute                         0.001710                      9   6
  273              map_backward                          0.000755                      2   6
  274                map_gather                            0.000198                    1   7
  275                m_alltoallv_z                         0.000323                    1   7
  276                map_scatter                           0.000183                    1   7
  277              map_forward                           0.001267                      4   6
  278                map_gather                            0.000263                    2   7
  279                m_alltoallv_z                         0.000496                    2   7
  280                map_scatter                           0.000407                    2   7
  281          M_sumb_d                              0.000124                          3   4
  282        brmix                                 0.011483                            1   3
  283          M_sumb_d                              0.000306                          6   4
  284          brpre                                 0.000053                          1   4
  285          setg0                                 0.001664                          1   4
  286          broyd                                 0.001801                          1   4
  287            M_sumb_d                              0.000469                       16   5
  288            brget                                 0.000281                       54   5
  289            brsav                                 0.000069                       14   5
  290          M_bcast_z                             0.006483                          1   4
  291          M_bcast_d                             0.000061                          1   4
  292        M_bcast_d                             0.000401                            2   3
  293      potlok                                0.030814                              1   2
  294        fft3d_mpi                             0.020135                           13   3
  295          fftbas_plan_mpi                       0.018625                         13   4
  296            dfftw_execute                         0.007267                       39   5
  297            map_forward                           0.004316                       14   5
  298              map_gather                            0.000842                      8   6
  299              m_alltoallv_z                         0.001683                      8   6
  300              map_scatter                           0.001441                      8   6
  301            map_backward                          0.004335                       12   5
  302              map_gather                            0.001353                      6   6
  303              m_alltoallv_z                         0.001523                      6   6
  304              map_scatter                           0.001160                      6   6
  305        ggaall_grid                           0.002048                            1   3
  306        M_sumb_d                              0.000254                            6   3
  307        M_bcast_d                             0.000105                            1   3
  308      potlok_metagga                        0.000003                              1   2
  309      set_dd_magatom                        0.000003                              1   2
  310      set_dd_paw                            0.000361                              1   2
  311        set_rsgf_all                          0.000004                            1   3
  312        M_sumb_d                              0.000215                            8   3
  313      densta                                0.002034                              1   2
  314        M_sumb_d                              0.000832                           41   3
  315      lprj_proall                           0.000008                              1   2

 Flat profile

 total_time                             12.857092           1
 dfftw_execute                           3.494903       28113
 eddav                                   3.036114          14
 setdij_                                 2.126616          38
 fftbas_plan_mpi                         2.077506        9373
 M_sumb_d                                1.433541       26536
 set_charge                              1.055928          10
 m_alltoallv_z                           1.001581        9392
 elmin                                   0.947718           1
 spher                                   0.718575          20
 M_alltoall_d                            0.640740       30744
 pdssyex_zheevx                          0.594666         294
 vhamil                                  0.498603        4164
 orth1                                   0.478543        6267
 map_gather                              0.450493        9392
 map_scatter                             0.436391        9392
 proj1                                   0.425394        3828
 fftwav_mpi                              0.419638        4953
 map_forward                             0.417709       10152
 gemm                                    0.355785       12492
 M_bcast_z                               0.303663        3789
 vnlac0                                  0.269283        4164
 redis_pw                                0.257291       11946
 crpa_reader                             0.241837           1
 hamiltmu                                0.227754        2082
 redis_proj                              0.224237       14955
 fft3d_mpi                               0.189328        9371
 w1_copy                                 0.176257       12492
 map_backward                            0.151790        8590
 work_mul_crexp                          0.142666       12492
 fftext_mpi                              0.135641        4164
 eccp                                    0.122495        1176
 crexp_mul_wave                          0.108962       11484
 potlok                                  0.097378          11
 kinhamil                                0.083364        4164
 overl                                   0.079499        7173
 M_bcast_d                               0.068851        2110
 pw_charge                               0.061100         789
 force_and_stress                        0.051740           1
 overl1                                  0.049242        4164
 lincom                                  0.046111         315
 apply_precond                           0.044074        2988
 setup_precond                           0.039498        1176
 phase                                   0.035260         526
 w1_projall                              0.032552        1494
 ggaall_grid                             0.024591          12
 fornl                                   0.022428           1
 soft_charge                             0.021406          10
 truncate_high_frequency_w1              0.017961        5340
 densta                                  0.017201          15
 setg0                                   0.014779          11
 strenl                                  0.013329           1
 brmix                                   0.011082          10
 forhar                                  0.007139           2
 broyd                                   0.006920          10
 forloc                                  0.003483           1
 strehar                                 0.003082           1
 strelo                                  0.002948           1
 set_dd_paw                              0.002496          12
 chggra                                  0.002390           1
 depsum                                  0.002280          10
 orthch                                  0.002015           1
 brget                                   0.001550         309
 brgrid                                  0.001217           1
 proj                                    0.001090          21
 brsav                                   0.000925          96
 choleski                                0.000891          21
 brpre                                   0.000710          10
 strkin                                  0.000444           1
 fordep                                  0.000111           1
 vectorpot                               0.000090          11
 set_rsgf_all                            0.000057          12
 set_dd_magatom                          0.000046          12
 potlok_metagga                          0.000043          11
 set_kineden                             0.000032           9
 rotate_active_occupied_orbital          0.000015           1
 lprj_proall                             0.000008           1
 redis_pw_over_bands                     0.000004           1
  summed up times    36.8901731967926

 Accumulative profile

 total_time                             36.890173           1
 elmin                                  20.195568           1
 eddav                                  16.271315          14
 fft3d_mpi                               8.145168        9371
 fftbas_plan_mpi                         8.030373        9373
 hamiltmu                                5.139897        2082
 fftwav_mpi                              4.441836        4953
 dfftw_execute                           3.494903       28113
 kinhamil                                3.346368        4164
 fftext_mpi                              3.263004        4164
 force_and_stress                        2.917894           1
 setdij_                                 2.716062          38
 set_charge                              1.989429          10
 map_forward                             1.541186       10152
 M_sumb_d                                1.433541       26536
 vnlac0                                  1.017930        4164
 m_alltoallv_z                           1.001581        9392
 map_backward                            0.916779        8590
 strenl                                  0.781637           1
 soft_charge                             0.774655          10
 proj1                                   0.750023        3828
 spher                                   0.718575          20
 w1_projall                              0.644474        1494
 M_alltoall_d                            0.640740       30744
 redis_pw                                0.616460       11946
 pdssyex_zheevx                          0.594666         294
 redis_proj                              0.505807       14955
 vhamil                                  0.498603        4164
 orth1                                   0.478543        6267
 map_gather                              0.450493        9392
 map_scatter                             0.436391        9392
 fordep                                  0.422516           1
 gemm                                    0.355785       12492
 potlok                                  0.349625          11
 M_bcast_z                               0.303663        3789
 crpa_reader                             0.241837           1
 eccp                                    0.187870        1176
 w1_copy                                 0.176257       12492
 work_mul_crexp                          0.142666       12492
 crexp_mul_wave                          0.108962       11484
 overl                                   0.079499        7173
 set_dd_paw                              0.073362          12
 setup_precond                           0.069255        1176
 M_bcast_d                               0.068851        2110
 pw_charge                               0.061100         789
 brmix                                   0.059089          10
 overl1                                  0.049242        4164
 lincom                                  0.046111         315
 apply_precond                           0.044074        2988
 phase                                   0.035260         526
 fornl                                   0.031437           1
 densta                                  0.029702          15
 ggaall_grid                             0.024591          12
 orthch                                  0.022899           1
 truncate_high_frequency_w1              0.017961        5340
 proj                                    0.015028          21
 setg0                                   0.014779          11
 broyd                                   0.013247          10
 forhar                                  0.007288           2
 chggra                                  0.007262           1
 depsum                                  0.006530          10
 forloc                                  0.003541           1
 strehar                                 0.003213           1
 strelo                                  0.003068           1
 brget                                   0.001550         309
 brgrid                                  0.001217           1
 brsav                                   0.000925          96
 choleski                                0.000891          21
 strkin                                  0.000801           1
 brpre                                   0.000710          10
 vectorpot                               0.000090          11
 set_rsgf_all                            0.000057          12
 set_dd_magatom                          0.000046          12
 potlok_metagga                          0.000043          11
 set_kineden                             0.000032           9
 rotate_active_occupied_orbital          0.000015           1
 lprj_proall                             0.000008           1
 redis_pw_over_bands                     0.000004           1

Profiling took   0.739182  0.894076  0.006340  0.004868 seconds
Profiling took   0.723020 seconds